max_credits = 6;
n_courses = 2;
n_students = 2;

course_names = [
  "MINERIA DE DATOS",
  "MULTIMEDIA"
];

course_codes = [
  "MD",
  "MM"
];

capacity = [1, 1];
credits = [6, 6];

students = [
  "alumnoA@upm.es",
  "alumnoB@upm.es"
];

pref = array2d(1..n_students, 1..n_courses,
[
  % MD, MM
     3,  0,   % Alumno A
     3,  0    % Alumno B
]);

avg_grade_100 = [
  700,   % Alumno A = 7.00
  800    % Alumno B = 8.00
];

previous_rejections = array2d(1..n_students, 1..n_courses,
[
  % MD, MM
     4, 0,    % Alumno A tiene rechazos previos en MD
     0, 0
]);